
Gurobi 12.0.2 (win64) logging started Thu Jun  5 10:49:51 2025

Set parameter LogFile to value "C:\Ioana\_uni\honours\slp\algorithm\Main_files\results\others\prox_tubules\Task_024_Sample003_irr_gurobi.log"
Gurobi Optimizer version 12.0.2 build v12.0.2rc0 (win64 - Windows 11.0 (26100.2))

CPU model: Intel(R) Core(TM) Ultra 5 125H, instruction set [SSE2|AVX|AVX2]
Thread count: 14 physical cores, 18 logical processors, using up to 18 threads

Non-default parameters:
TimeLimit  2200

Optimize a model with 47658 rows, 34802 columns and 147849 nonzeros
Model fingerprint: 0xd06ee45e
Variable types: 17408 continuous, 17394 integer (17394 binary)
Coefficient statistics:
  Matrix range     [1e-04, 8e+04]
  Objective range  [2e-04, 3e+00]
  Bounds range     [1e+00, 1e+03]
  RHS range        [1e+00, 1e+00]
Presolve removed 31253 rows and 21843 columns
Presolve time: 0.31s
Presolved: 16405 rows, 12959 columns, 54586 nonzeros
Variable types: 6413 continuous, 6546 integer (6546 binary)
Found heuristic solution: objective 22.5233701

Root relaxation: objective 7.699858e-01, 0 iterations, 0.01 seconds (0.00 work units)

    Nodes    |    Current Node    |     Objective Bounds      |     Work
 Expl Unexpl |  Obj  Depth IntInf | Incumbent    BestBd   Gap | It/Node Time

*    0     0               0       0.7699858    0.76999  0.00%     -    0s

Explored 1 nodes (0 simplex iterations) in 0.45 seconds (0.45 work units)
Thread count was 18 (of 18 available processors)

Solution count 2: 0.769986 22.5234 

Optimal solution found (tolerance 1.00e-04)
Best objective 7.699858214599e-01, best bound 7.699858214599e-01, gap 0.0000%
